937600
0,69,73,31,12,62,67,98,79,37,75,82,14,60,57,15,81,66,10,22,27,45,26,1,63,4,2,84,88,7,41,96,34,87,49,35,71,54,43,90,52,48,92,61,30,59,95,29,9,55,17,68,74,5,40,76,20,19,8,32,56,46,3,65,94,24,77,50,78,28,39,93,25,16,11,18,58,89,33,70,97,53,64,51,23,42,21,72,83,91,38,13,6,80,85,44,86,47,36,0